objective value:                                  -10
t_n_7                                               1 	(obj:-1)
t_n_214                                             1 	(obj:-1)
t_n_278                                             1 	(obj:-1)
t_n_446                                             1 	(obj:-1)
t_n_503                                             1 	(obj:-1)
t_n_598                                             1 	(obj:-1)
t_n_617                                             1 	(obj:-1)
t_n_773                                             1 	(obj:-1)
t_n_932                                             1 	(obj:-1)
t_n_962                                             1 	(obj:-1)
